NAME : instances/clustered-mixed-tsp/instance-51.tsp
COMMENT : No Comment
TYPE : TSP
DIMENSION: 44
EDGE_WEIGHT_TYPE : EUC_2D
NODE_COORD_SECTION
1 972 142 
2 636 286 
3 156 169 
4 662 677 
5 598 201 
6 1032 893 
7 984 1101 
8 488 6 
9 -52 201 
10 268 393 
11 672 892 
12 238 182 
13 936 1165 
14 1016 893 
15 427 616 
16 507 1048 
17 518 757 
18 227 341 
19 656 892 
20 648 925 
21 427 920 
22 911 399 
23 526 630 
24 912 684 
25 1085 113 
26 470 185 
27 845 -223 
28 1032 1101 
29 924 254 
30 406 377 
31 227 373 
32 307 453 
33 861 -31 
34 656 988 
35 765 -255 
36 1064 1053 
37 1048 845 
38 214 757 
39 318 358 
40 174 310 
41 190 358 
42 1000 1213 
43 268 361 
44 1023 63 
EOF
